tsp_instances/TSP20/instance75.tsp
NODE_COORD_SECTION
0 75 163
1 177 51
2 3 128
3 181 103
4 31 60
5 106 73
6 160 57
7 7 168
8 169 168
9 192 7
10 193 99
11 194 30
12 197 26
13 110 77
14 90 45
15 14 39
16 39 145
17 177 200
18 90 128
19 101 62
