tsp_instances/TSP20/instance75.opt.tour
TOUR_SECTION
1
17
8
3
5
16
15
20
6
14
7
2
10
13
12
11
4
9
18
19
-1